20
17 4 6 10 11 5 9 5 1 6 4 7 7 4 6 8 2 7 16 9 2 6 12 8 11 11 8 13 2 0 18 14 12 12 12 3 3 5 13 16 1 14 4 15 8 10 18 0 10 13 16 1 15 3 3 11 4 10 0 14 3 13 16 9 9 14 5 0 10 3 6 15 -1 0 0 3 5 1 5 5 1 11 2 15 17 7 13 7 9 18 7 1 4 17 6 2 6 10 2 4 
